25
22 76231 20061
17 89385 30888
13 13931 90029
4 65784 83428
14 16651 64372
9 92779 78044
24 33071 65125
11 22864 98539
19 2569 44921
12 84423 56431
6 75200 18458
8 98317 3137
15 13786 38337
20 97765 41423
21 34024 60494
23 85388 21532
18 75013 94326
3 89174 13928
2 61395 55738
1 47795 79804
25 68692 77375
16 5213 98169
5 2364 23060
10 80542 95370
7 74069 36917
